SCIP Status        : solving was interrupted [time limit reached]
Total Time         :    3600.01
  solving          :    3600.00
  presolving       :       0.27 (included in solving)
  reading          :       0.01
  copying          :       0.77 (36 #copies) (minimal 0.00, maximal 0.06, average 0.02)
Original Problem   :
  Problem name     : bbbenchmark/g05_80.3.cut
  Variables        : 81 (80 binary, 0 integer, 0 implicit integer, 1 continuous)
  Constraints      : 1 initial, 1 maximal
  Objective        : minimize, 1 non-zeros (abs.min = 1, abs.max = 1)
Presolved Problem  :
  Problem name     : t_bbbenchmark/g05_80.3.cut
  Variables        : 1612 (80 binary, 0 integer, 1530 implicit integer, 2 continuous)
  Constraints      : 1534 initial, 6072 maximal
  Objective        : minimize, 1 non-zeros (abs.min = 1, abs.max = 1)
  Nonzeros         : 6307 constraint, 162 clique table
Presolvers         :   ExecTime  SetupTime  Calls  FixedVars   AggrVars   ChgTypes  ChgBounds   AddHoles    DelCons    AddCons   ChgSides   ChgCoefs
  boundshift       :       0.00       0.00      0          0          0          0          0          0          0          0          0          0
  convertinttobin  :       0.00       0.00      0          0          0          0          0          0          0          0          0          0
  domcol           :       0.00       0.00      1          0          0          0          0          0          0          0          0          0
  dualagg          :       0.00       0.00      0          0          0          0          0          0          0          0          0          0
  dualcomp         :       0.00       0.00      1          0          0          0          0          0          0          0          0          0
  dualinfer        :       0.00       0.00      0          0          0          0          0          0          0          0          0          0
  dualsparsify     :       0.00       0.00      1          0          0          0          0          0          0          0          0          0
  gateextraction   :       0.00       0.00      0          0          0          0          0          0          0          0          0          0
  implics          :       0.00       0.00      2          0          0          0          0          0          0          0          0          0
  inttobinary      :       0.00       0.00      0          0          0          0          0          0          0          0          0          0
  qpkktref         :       0.00       0.00      0          0          0          0          0          0          0          0          0          0
  redvub           :       0.00       0.00      0          0          0          0          0          0          0          0          0          0
  sparsify         :       0.00       0.00      1          0          0          0          0          0          0          0          0          0
  stuffing         :       0.00       0.00      0          0          0          0          0          0          0          0          0          0
  trivial          :       0.00       0.00      4          0          0          0          0          0          0          0          0          0
  tworowbnd        :       0.00       0.00      0          0          0          0          0          0          0          0          0          0
  dualfix          :       0.00       0.00      4          0          0          0          0          0          0          0          0          0
  genvbounds       :       0.00       0.00      0          0          0          0          0          0          0          0          0          0
  probing          :       0.11       0.00      1          0          0          0          0          0          0          0          0          0
  pseudoobj        :       0.00       0.00      1          0          0          0          1          0          0          0          0          0
  symmetry         :       0.00       0.00      0          0          0          0          0          0          0          0          0          0
  vbounds          :       0.00       0.00      1          0          0          0          0          0          0          0          0          0
  varbound         :       0.00       0.00      2          0          0          0          0          0          0          0          0          0
  and              :       0.00       0.00      2          0          0          0          0          0          0          0          0          0
  linear           :       0.00       0.00      2          0          0          0          0          0          0          0          0          0
  logicor          :       0.00       0.00      0          0          0          0          0          0          0          0          0          0
  bounddisjunction :       0.00       0.00      0          0          0          0          0          0          0          0          0          0
  nonlinear        :       0.14       0.01      5          0          0          0          1          0          0       1533          0          0
  benders          :       0.00       0.00      0          0          0          0          0          0          0          0          0          0
  components       :       0.01       0.00      1          0          0          0          0          0          0          0          0          0
  root node        :          -          -      -          0          -          -         28          -          -          -          -          -
Constraints        :     Number  MaxNumber  #Separate #Propagate    #EnfoLP    #EnfoRelax  #EnfoPS    #Check   #ResProp    Cutoffs    DomReds       Cuts    Applied      Conss   Children
  benderslp        :          0          0          0          0      66084          0          0        873          0          0          0          0          0          0          0
  integral         :          0          0          0          0      66084          0          0        873          0          0       3617          0          0       2363     129016
  varbound         :          1          1         23       6537          0          0          0         38          0          0         78          0          0          0          0
  and              :       1530       1530      75631     514218          6          0          0         38     185252          7    2259991       3501       3420          0          0
  linear           :          3          3         23     514213          6          0          0         36          4          0      40621          0          0          0          0
  logicor          :          0+      4538          0     116921          0          0          0          0        473        370         50          0          0          0          0
  bounddisjunction :          0+         4          0        726          0          0          0          0          0          1          0          0          0          0          0
  benders          :          0          0          0          0          6          0          0         34          0          0          0          0          0          0          0
  countsols        :          0          0          0          0          6          0          0         34          0          0          0          0          0          0          0
  components       :          0          0          0          0          0          0          0          0          0          0          0          0          0          0          0
Constraint Timings :  TotalTime  SetupTime   Separate  Propagate     EnfoLP     EnfoPS     EnfoRelax   Check    ResProp    SB-Prop
  benderslp        :       0.07       0.00       0.00       0.00       0.07       0.00       0.00       0.00       0.00       0.00
  integral         :      49.88       0.00       0.00       0.00      49.88       0.00       0.00       0.00       0.00       0.00
  varbound         :       0.00       0.00       0.00       0.00       0.00       0.00       0.00       0.00       0.00       0.00
  and              :      54.63       0.00      34.33      19.79       0.00       0.00       0.00       0.00       0.14       0.37
  linear           :       0.74       0.00       0.01       0.73       0.00       0.00       0.00       0.00       0.00       0.00
  logicor          :       4.83       0.00       0.00       4.80       0.00       0.00       0.00       0.00       0.01       0.02
  bounddisjunction :       0.00       0.00       0.00       0.00       0.00       0.00       0.00       0.00       0.00       0.00
  benders          :       0.00       0.00       0.00       0.00       0.00       0.00       0.00       0.00       0.00       0.00
  countsols        :       0.00       0.00       0.00       0.00       0.00       0.00       0.00       0.00       0.00       0.00
  components       :       0.15       0.00       0.00       0.15       0.00       0.00       0.00       0.00       0.00       0.00
Propagators        : #Propagate   #ResProp    Cutoffs    DomReds
  dualfix          :          3          0          0          0
  genvbounds       :          0          0          0          0
  nlobbt           :          0          0          0          0
  obbt             :          0          0          0          0
  probing          :          0          0          0          0
  pseudoobj        :     306262          0          0         30
  redcost          :     153762          0          0      47696
  rootredcost      :         16          0          0          0
  symmetry         :          0          0          0          0
  vbounds          :      47205          0          0          0
Propagator Timings :  TotalTime  SetupTime   Presolve  Propagate    ResProp    SB-Prop
  dualfix          :       0.00       0.00       0.00       0.00       0.00       0.00
  genvbounds       :       0.31       0.00       0.00       0.30       0.00       0.01
  nlobbt           :       0.00       0.00       0.00       0.00       0.00       0.00
  obbt             :       0.00       0.00       0.00       0.00       0.00       0.00
  probing          :       0.11       0.00       0.11       0.00       0.00       0.00
  pseudoobj        :       0.55       0.00       0.00       0.55       0.00       0.00
  redcost          :       7.48       0.00       0.00       7.48       0.00       0.00
  rootredcost      :       0.46       0.00       0.00       0.45       0.00       0.01
  symmetry         :       0.21       0.00       0.00       0.21       0.00       0.00
  vbounds          :       0.25       0.00       0.00       0.24       0.00       0.01
Conflict Analysis  :       Time      Calls    Success    DomReds  Conflicts   Literals    Reconvs ReconvLits   Dualrays   Nonzeros   LP Iters   (pool size: [10000,10000])
  propagation      :       0.01        378        270          -        309       41.3          0        0.0          -          -          -
  infeasible LP    :       0.00          0          0          -          0        0.0          0        0.0          0        0.0          0
  bound exceed. LP :      12.58       7889       5721          -      64092       61.8          3       34.7          0        0.0      35499
  strong branching :       0.00          0          0          -          0        0.0          0        0.0          -          -          0
  pseudo solution  :       0.00          0          0          -          0        0.0          0        0.0          -          -          -
  applied globally :       0.20          -          -          0      19208       68.1          -          -          0          -          -
  applied locally  :          -          -          -          0          0        0.0          -          -          0          -          -
Separators         :   ExecTime  SetupTime      Calls  RootCalls    Cutoffs    DomReds  FoundCuts ViaPoolAdd  DirectAdd    Applied ViaPoolApp  DirectApp      Conss
  cut pool         :       3.92          -      24562         43          -          -      36397    1181696          -          -          -          -          -    (maximal pool size:       2122)
  aggregation      :       6.77       0.00       4989         23          0          0        464       8957          0       3473       3473          0          0
  > cmir           :          -          -          -          -          -          -          -       8957          0       3473       3473          0          -
  > flowcover      :          -          -          -          -          -          -          -          0          0          0          0          0          -
  > knapsackcover  :          -          -          -          -          -          -          -          0          0          0          0          0          -
  cgmip            :       0.00       0.00          0          0          0          0          0          0          0          0          0          0          0
  clique           :       0.00       0.00         23         23          0          0          0          0          0          0          0          0          0
  closecuts        :       0.00       0.00          0          0          0          0          0          0          0          0          0          0          0
  convexproj       :       0.00       0.00          0          0          0          0          0          0          0          0          0          0          0
  disjunctive      :       0.00       0.00          0          0          0          0          0          0          0          0          0          0          0
  eccuts           :       0.00       0.00          0          0          0          0          0          0          0          0          0          0          0
  gauge            :       0.00       0.00          0          0          0          0          0          0          0          0          0          0          0
  gomory           :       0.00       0.00          0          0          0          0          0          0          0          0          0          0          0
  > gomorymi       :          -          -          -          -          -          -          -          0          0          0          0          0          -
  > strongcg       :          -          -          -          -          -          -          -          0          0          0          0          0          -
  impliedbounds    :       0.25       0.00       4989         23          0          0          0          0          0          0          0          0          0
  interlattice     :       0.00       0.00          0          0          0          0          0          0          0          0          0          0          0
  interminor       :       0.00       0.00          0          0          0          0          0          0          0          0          0          0          0
  intersub         :       0.00       0.00          0          0          0          0          0          0          0          0          0          0          0
  intobj           :       0.00       0.00          0          0          0          0          0          0          0          0          0          0          0
  mcf              :       0.00       0.00          1          1          0          0          0          0          0          0          0          0          0
  minor            :       0.02       0.00          0          0          0          0          0          0          0          0          0          0          0
  mixing           :       0.00       0.00       4989         23          0          0          0          0          0          0          0          0          0
  oddcycle         :       0.00       0.00          0          0          0          0          0          0          0          0          0          0          0
  rapidlearning    :       0.00       0.00          0          0          0          0          0          0          0          0          0          0          0
  rlt              :       0.00       0.00         10         10          0          0          0          0          0          0          0          0          0
  zerohalf         :      30.94       0.00       4223         20          0          0      35933    1172739          0     115850     115850          0          0
Cutselectors       :   ExecTime  SetupTime      Calls  RootCalls   Selected     Forced   Filtered  RootSelec   RootForc   RootFilt 
  hybrid           :       0.67       0.00      12855         20     122743          0    1062454        159          0         25
Pricers            :   ExecTime  SetupTime      Calls       Vars
  problem variables:       0.00          -          0          0
Branching Rules    :   ExecTime  SetupTime   BranchLP  BranchExt   BranchPS    Cutoffs    DomReds       Cuts      Conss   Children
  allfullstrong    :       0.00       0.00          0          0          0          0          0          0          0          0
  cloud            :       0.00       0.00          0          0          0          0          0          0          0          0
  distribution     :       0.00       0.00          0          0          0          0          0          0          0          0
  fullstrong       :       0.00       0.00          0          0          0          0          0          0          0          0
  inference        :       0.00       0.00          0          0          0          0          0          0          0          0
  leastinf         :       0.00       0.00          0          0          0          0          0          0          0          0
  lookahead        :       0.00       0.00          0          0          0          0          0          0          0          0
  mostinf          :       0.00       0.00          0          0          0          0          0          0          0          0
  multaggr         :       0.00       0.00          0          0          0          0          0          0          0          0
  nodereopt        :       0.00       0.00          0          0          0          0          0          0          0          0
  pscost           :       0.00       0.00          0          0          0          0          0          0          0          0
  random           :       0.00       0.00          0          0          0          0          0          0          0          0
  relpscost        :      49.60       0.00      66078          0          0          0       3617          0       2365     129016
  vanillafullstrong:       0.00       0.00          0          0          0          0          0          0          0          0
Primal Heuristics  :   ExecTime  SetupTime      Calls      Found       Best
  LP solutions     :       0.01          -          -          6          6
  relax solutions  :       0.00          -          -          0          0
  pseudo solutions :       0.00          -          -          0          0
  strong branching :       0.02          -          -          0          0
  actconsdiving    :       0.00       0.00          0          0          0
  adaptivediving   :       3.26       0.00         41          0          0
  alns             :       2.78       0.00         24          5          5
  bound            :       0.00       0.00          0          0          0
  clique           :       0.01       0.00          1          0          0
  coefdiving       :       0.00       0.00          0          0          0
  completesol      :       0.00       0.00          0          0          0
  conflictdiving   :      30.57       0.00        396          0          0
  crossover        :       1.18       0.00          8          2          2
  dins             :       0.00       0.00          0          0          0
  distributiondivin:      55.12       0.00        395          0          0
  dps              :       0.00       0.00          0          0          0
  dualval          :       0.00       0.00          0          0          0
  farkasdiving     :       0.00       0.00          0          0          0
  feaspump         :       0.00       0.00          0          0          0
  fixandinfer      :       0.00       0.00          0          0          0
  fracdiving       :      40.09       0.00        395          0          0
  gins             :       0.06       0.00          0          0          0
  guideddiving     :      33.03       0.00        395          2          2
  indicator        :       0.03       0.00          0          0          0
  indicatordiving  :       0.00       0.00          0          0          0
  intdiving        :       0.00       0.00          0          0          0
  intshifting      :       0.14       0.00         26          0          0
  linesearchdiving :      29.84       0.00        396          0          0
  localbranching   :       0.00       0.00          0          0          0
  locks            :       0.00       0.00          1          0          0
  lpface           :       0.07       0.00          0          0          0
  mpec             :      23.97       0.00          3          0          0
  multistart       :       0.00       0.00          0          0          0
  mutation         :       0.00       0.00          0          0          0
  nlpdiving        :      10.49       0.00          6          0          0
  objpscostdiving  :      39.94       0.00         63          6          0
  octane           :       0.00       0.00          0          0          0
  ofins            :       0.06       0.00          0          0          0
  oneopt           :       0.06       0.00         25          0          0
  padm             :       0.00       0.00          0          0          0
  proximity        :       0.00       0.00          0          0          0
  pscostdiving     :      38.04       0.00        395          1          1
  randrounding     :       0.09       0.00        835          0          0
  rens             :       0.00       0.00          0          0          0
  reoptsols        :       0.00       0.00          0          0          0
  repair           :       0.00       0.00          0          0          0
  rins             :       4.92       0.00          4          1          1
  rootsoldiving    :      36.23       0.00         47          1          0
  rounding         :       0.75       0.00       3819          0          0
  shiftandpropagate:       0.00       0.00          0          0          0
  shifting         :      48.71       0.00      15091         10          9
  simplerounding   :       0.11       0.00          0          0          0
  subnlp           :      93.44       0.00          0          0          0
  trivial          :       0.01       0.00          2          2          2
  trivialnegation  :       0.00       0.00          0          0          0
  trustregion      :       0.00       0.00          0          0          0
  trysol           :       0.14       0.00          0          0          0
  twoopt           :       0.00       0.00          0          0          0
  undercover       :       0.47       0.00          1          1          1
  vbounds          :       0.00       0.00          0          0          0
  veclendiving     :      26.05       0.00        395          0          0
  zeroobj          :       0.00       0.00          0          0          0
  zirounding       :       0.40       0.00       1000          0          0
  other solutions  :          -          -          -          0          -
Diving (single)    :      Calls      Nodes   LP Iters Backtracks  Conflicts   MinDepth   MaxDepth   AvgDepth  RoundSols  NLeafSols  MinSolDpt  MaxSolDpt  AvgSolDpt
  actconsdiving    :          0          -          -          -          -          -          -          -          -          -          -          -          -
  coefdiving       :          0          -          -          -          -          -          -          -          -          -          -          -          -
  conflictdiving   :        396      10828     334522        426      12137         34         68       43.6          0          -          -          -          -
  distributiondivin:        395       8907     435781        464       5923         32         50       39.0          0          -          -          -          -
  farkasdiving     :          0          -          -          -          -          -          -          -          -          -          -          -          -
  fracdiving       :        395      68867     428700        393       3023         43        534      190.8          0          -          -          -          -
  guideddiving     :        395      56922     354263        195       2147         51        432      161.2          0          2         71         85       78.0
  indicatordiving  :          0          -          -          -          -          -          -          -          -          -          -          -          -
  linesearchdiving :        396      12596     346647        485      10256         34         71       48.0          0          -          -          -          -
  pscostdiving     :        395      11996     438377        405       6430         37         59       46.8          0          1         59         59       59.0
  veclendiving     :        395      10385     277383        399      14228         37         59       43.1          0          -          -          -          -
Diving (adaptive)  :      Calls      Nodes   LP Iters Backtracks  Conflicts   MinDepth   MaxDepth   AvgDepth  RoundSols  NLeafSols  MinSolDpt  MaxSolDpt  AvgSolDpt
  actconsdiving    :         10        245      11459         11        150         34         43       39.3          0          -          -          -          -
  coefdiving       :         15        406      12006         15        526         35         59       42.6          0          -          -          -          -
  conflictdiving   :          0          -          -          -          -          -          -          -          -          -          -          -          -
  distributiondivin:          0          -          -          -          -          -          -          -          -          -          -          -          -
  farkasdiving     :          0          -          -          -          -          -          -          -          -          -          -          -          -
  fracdiving       :          2        284       2346          2         19        103        212      157.5          0          -          -          -          -
  guideddiving     :          5        802       5357          1          0         88        348      173.6          0          -          -          -          -
  indicatordiving  :          0          -          -          -          -          -          -          -          -          -          -          -          -
  linesearchdiving :          1         37        717          1         28         49         49       49.0          0          -          -          -          -
  pscostdiving     :          2         43       1066          2         21         47         52       49.5          0          -          -          -          -
  veclendiving     :          6        166       4416          7        154         39         55       45.3          0          -          -          -          -
Neighborhoods      :      Calls  SetupTime  SolveTime SolveNodes       Sols       Best       Exp3  EpsGreedy        UCB TgtFixRate  Opt  Inf Node Stal  Sol  Usr Othr Actv
  rens             :          1       0.00       0.00          0          0          0    0.00000   -1.00000    0.07176      0.900    0    0    0    0    0    0    1    1
  rins             :          2       0.05       0.03         23          0          0    0.00000   -1.00000    0.51994      0.550    0    2    0    0    0    0    0    1
  mutation         :          3       0.10       0.25         71          0          0    0.00000   -1.00000    0.45823      0.662    0    2    0    1    0    0    0    1
  localbranching   :          4       0.13       0.34        269          4          4    0.00000   -1.00000    0.52516      0.578    2    1    0    1    0    0    0    1
  crossover        :          4       0.22       0.83        112          0          0    0.00000   -1.00000    0.42405      0.522    0    3    0    1    0    0    0    1
  proximity        :          2       0.07       0.08         68          0          0    0.00000   -1.00000    0.46051      0.850    0    1    0    1    0    0    0    1
  zeroobjective    :          5       0.15       0.25        163          1          1    0.00000   -1.00000    0.49386      0.641    1    2    0    2    0    0    0    1
  dins             :          3       0.10       0.11         79          0          0    0.00000   -1.00000    0.43946      0.662    0    2    0    1    0    0    0    1
  trustregion      :          0       0.00       0.00          0          0          0    0.00000   -1.00000    1.00000      0.900    0    0    0    0    0    0    0    0
Expressions        :   #IntEval  IntEvalTi   #RevProp  RevPropTi    DomReds    Cutoffs  #Estimate  EstimTime  Branching  #Simplify SimplifyTi Simplified
  pow              :          0       0.00          0       0.00          0          0          0       0.00          0          0       0.00          0
  prod             :       6320       0.01          0       0.00          0          0          0       0.00          0       4690       0.01          0
  sum              :          8       0.01          2       0.00          0          0          0       0.00          0          3       0.00          2
  var              :       5485       0.00          0       0.00          0          0          0       0.00          0      11154       0.02          0
  varidx           :          0       0.00          0       0.00          0          0          0       0.00          0          0       0.00          0
LP                 :       Time      Calls Iterations  Iter/call   Iter/sec  Time-0-It Calls-0-It    ItLimit
  primal LP        :     149.28      12006          0       0.00       0.00     149.21      12006
  dual LP          :    2667.44     134209   14374670     114.59    5388.94       3.49       8760
  lex dual LP      :       0.00          0          0       0.00          -
  barrier LP       :       0.00          0          0       0.00          -       0.00          0
  resolve instable :       0.00          0          0       0.00          -
  diving/probing LP:     282.97      11817    3168656     268.14   11197.85
  strong branching :      27.72       3557     329221      92.56   11876.66          -          -         69
    (at root node) :          -         19       2445     128.68          -
  conflict analysis:       5.18       3603      35499       9.85    6853.09
NLP relaxation     :
  solve time       :       9.45 (9 calls)
  convexity        :  nonconvex (4 linear rows, 0 convex ineq., 0 nonconvex ineq., 1530 nonlinear eq. or two-sided ineq.)
NLP Solvers        :  #Problems  ProblemTi    #Solves  SolveTime      #Iter  Time/Iter      #Okay #TimeLimit #IterLimit #LObjLimit #Interrupt  #NumError #EvalError  #OutOfMem #LicenseEr #OtherTerm   #GlobOpt    #LocOpt  #Feasible #LocInfeas #GlobInfea #Unbounded   #Unknown
  ipopt            :          4       4.20         18      33.44        728       0.05         16          0          2          0          0          0          0          0          0          0          0          1          1          9          0          0          7
B&B Tree           :
  number of runs   :          1
  nodes            :     111050 (64508 internal, 46542 leaves)
  feasible leaves  :          6
  infeas. leaves   :         24
  objective leaves :      46511
  nodes (total)    :     111050 (64508 internal, 46542 leaves)
  nodes left       :      17947
  max depth        :         50
  max depth (total):         50
  backtracks       :      25587 (23.0%)
  early backtracks :          0 (0.0%)
  nodes exc. ref.  :          0 (0.0%)
  delayed cutoffs  :          0
  repropagations   :       3016 (82 domain reductions, 0 cutoffs)
  avg switch length:       5.14
  switching time   :     168.64
Estim. Tree Size   :     222140
Estimation Tree    : 129017 nodes (111070 visited, 64508 internal, 46562 leaves, 17947 open), weight: 0.0000 completed 0.1485
Estimations        :      estim      value      trend resolution     smooth
  wbe              : 6605743120          -          -          -          -
  tree-profile     :         -1          -          -          -          -
  gap              :    1071633    0.79930    0.00003         64    1129763
  tree-weight      :     222140    0.00001    0.00000         64     221858
  leaf-frequency   :    6979798    0.41921    0.00000         64    5574699
  ssg              :    4998401    0.76558   -0.00002         64    5128324
  open-nodes       :     222140 17947.00000   17.67675         64     221858
Root Node          :
  First LP value   : -1.00000000000000e+00
  First LP Iters   :       1020 (20400.00 Iter/sec)
  First LP Time    :       0.05
  Final Dual Bound : -9.41736990154715e-01
  Final Root Iters :       1544
  Root LP Estimate : -5.29907534068074e-01
Solution           :
  Solutions found  :         37 (29 improvements)
  First Solution   : +1.00000000000000e+05   (in run 1, after 0 nodes, 0.01 seconds, depth 0, found by <trivial>)
  Gap First Sol.   :   infinite
  Gap Last Sol.    :      27.62 %
  Primal Bound     : -5.79113924050633e-01   (in run 1, after 67238 nodes, 2024.12 seconds, depth 38, found by <relaxation>)
  Dual Bound       : -7.24525316455698e-01
  Gap              :      25.11 %
Integrals          :      Total       Avg%
  primal-dual      :   85178.03      23.66
  primal-ref       :          -          - (not evaluated)
  dual-ref         :          -          - (not evaluated)
